p cnf 958 2458
51 -692 -1 0
-51 692 0
-51 1 0
52 -51 -693 0
-52 51 0
-52 693 0
53 -694 -695 0
-53 694 0
-53 695 0
54 -53 -6 0
-54 53 0
-54 6 0
55 -696 -697 0
-55 696 0
-55 697 0
56 -8 -7 0
-56 8 0
-56 7 0
57 -56 -9 0
-57 56 0
-57 9 0
58 -698 -55 0
-58 698 0
-58 55 0
59 -699 -700 0
-59 699 0
-59 700 0
60 -59 -693 0
-60 59 0
-60 693 0
61 -701 -58 0
-61 701 0
-61 58 0
62 -12 -702 0
-62 12 0
-62 702 0
63 -62 -703 0
-63 62 0
-63 703 0
64 -704 -61 0
-64 704 0
-64 61 0
65 -705 -4 0
-65 705 0
-65 4 0
66 -65 -706 0
-66 65 0
-66 706 0
67 -707 -64 0
-67 707 0
-67 64 0
68 -17 -16 0
-68 17 0
-68 16 0
69 -68 -708 0
-69 68 0
-69 708 0
70 -709 -67 0
-70 709 0
-70 67 0
71 -19 -710 0
-71 19 0
-71 710 0
72 -71 -20 0
-72 71 0
-72 20 0
73 -711 -70 0
-73 711 0
-73 70 0
74 -22 -21 0
-74 22 0
-74 21 0
75 -74 -693 0
-75 74 0
-75 693 0
76 -712 -73 0
-76 712 0
-76 73 0
77 -23 -4 0
-77 23 0
-77 4 0
78 -77 -24 0
-78 77 0
-78 24 0
79 -713 -76 0
-79 713 0
-79 76 0
80 -26 -714 0
-80 26 0
-80 714 0
81 -80 -715 0
-81 80 0
-81 715 0
82 -716 -79 0
-82 716 0
-82 79 0
83 -717 -718 0
-83 717 0
-83 718 0
84 -83 -24 0
-84 83 0
-84 24 0
85 -719 -82 0
-85 719 0
-85 82 0
86 -720 -721 0
-86 720 0
-86 721 0
87 -86 -722 0
-87 86 0
-87 722 0
88 -723 -85 0
-88 723 0
-88 85 0
89 -724 -24 0
-89 724 0
-89 24 0
90 -89 -15 0
-90 89 0
-90 15 0
91 -725 -88 0
-91 725 0
-91 88 0
92 -30 -1 0
-92 30 0
-92 1 0
93 -92 -693 0
-93 92 0
-93 693 0
94 -726 -91 0
-94 726 0
-94 91 0
95 -727 -1 0
-95 727 0
-95 1 0
96 -95 -728 0
-96 95 0
-96 728 0
97 -729 -94 0
-97 729 0
-97 94 0
98 -36 -31 0
-98 36 0
-98 31 0
99 -98 -730 0
-99 98 0
-99 730 0
100 -731 -97 0
-100 731 0
-100 97 0
101 -29 -710 0
-101 29 0
-101 710 0
102 -101 -37 0
-102 101 0
-102 37 0
103 -732 -100 0
-103 732 0
-103 100 0
104 -38 -733 0
-104 38 0
-104 733 0
105 -104 -695 0
-105 104 0
-105 695 0
106 -734 -103 0
-106 734 0
-106 103 0
107 -37 -27 0
-107 37 0
-107 27 0
108 -107 -19 0
-108 107 0
-108 19 0
109 -735 -106 0
-109 735 0
-109 106 0
110 -39 -736 0
-110 39 0
-110 736 0
111 -110 -11 0
-111 110 0
-111 11 0
112 -737 -109 0
-112 737 0
-112 109 0
113 -738 -730 0
-113 738 0
-113 730 0
114 -113 -3 0
-114 113 0
-114 3 0
115 -739 -112 0
-115 739 0
-115 112 0
116 -40 -740 0
-116 40 0
-116 740 0
117 -116 -20 0
-117 116 0
-117 20 0
118 -741 -115 0
-118 741 0
-118 115 0
119 -742 -727 0
-119 742 0
-119 727 0
120 -119 -40 0
-120 119 0
-120 40 0
121 -743 -118 0
-121 743 0
-121 118 0
122 -36 -30 0
-122 36 0
-122 30 0
123 -122 -32 0
-123 122 0
-123 32 0
124 -744 -121 0
-124 744 0
-124 121 0
125 -721 -21 0
-125 721 0
-125 21 0
126 -125 -740 0
-126 125 0
-126 740 0
127 -745 -124 0
-127 745 0
-127 124 0
128 -39 -8 0
-128 39 0
-128 8 0
129 -128 -35 0
-129 128 0
-129 35 0
130 -746 -127 0
-130 746 0
-130 127 0
131 -747 -41 0
-131 747 0
-131 41 0
132 -131 -694 0
-132 131 0
-132 694 0
133 -748 -130 0
-133 748 0
-133 130 0
134 -4 -2 0
-134 4 0
-134 2 0
135 -134 -14 0
-135 134 0
-135 14 0
136 -749 -133 0
-136 749 0
-136 133 0
137 -750 -14 0
-137 750 0
-137 14 0
138 -137 -694 0
-138 137 0
-138 694 0
139 -751 -136 0
-139 751 0
-139 136 0
140 -41 -8 0
-140 41 0
-140 8 0
141 -140 -752 0
-141 140 0
-141 752 0
142 -753 -139 0
-142 753 0
-142 139 0
143 -727 -9 0
-143 727 0
-143 9 0
144 -143 -44 0
-144 143 0
-144 44 0
145 -754 -142 0
-145 754 0
-145 142 0
146 -45 -742 0
-146 45 0
-146 742 0
147 -146 -29 0
-147 146 0
-147 29 0
148 -755 -145 0
-148 755 0
-148 145 0
149 -45 -4 0
-149 45 0
-149 4 0
150 -149 -752 0
-150 149 0
-150 752 0
151 -756 -148 0
-151 756 0
-151 148 0
152 -28 -25 0
-152 28 0
-152 25 0
153 -152 -757 0
-153 152 0
-153 757 0
154 -758 -151 0
-154 758 0
-154 151 0
155 -717 -4 0
-155 717 0
-155 4 0
156 -155 -759 0
-156 155 0
-156 759 0
157 -760 -154 0
-157 760 0
-157 154 0
158 -44 -703 0
-158 44 0
-158 703 0
159 -158 -3 0
-159 158 0
-159 3 0
160 -761 -157 0
-160 761 0
-160 157 0
161 -36 -727 0
-161 36 0
-161 727 0
162 -161 -714 0
-162 161 0
-162 714 0
163 -762 -160 0
-163 762 0
-163 160 0
164 -38 -718 0
-164 38 0
-164 718 0
165 -164 -740 0
-165 164 0
-165 740 0
166 -763 -163 0
-166 763 0
-166 163 0
167 -721 -29 0
-167 721 0
-167 29 0
168 -167 -32 0
-168 167 0
-168 32 0
169 -764 -166 0
-169 764 0
-169 166 0
170 -30 -736 0
-170 30 0
-170 736 0
171 -170 -31 0
-171 170 0
-171 31 0
172 -765 -169 0
-172 765 0
-172 169 0
173 -7 -4 0
-173 7 0
-173 4 0
174 -173 -766 0
-174 173 0
-174 766 0
175 -767 -172 0
-175 767 0
-175 172 0
176 -768 -27 0
-176 768 0
-176 27 0
177 -176 -769 0
-177 176 0
-177 769 0
178 -770 -175 0
-178 770 0
-178 175 0
179 -41 -9 0
-179 41 0
-179 9 0
180 -179 -771 0
-180 179 0
-180 771 0
181 -772 -178 0
-181 772 0
-181 178 0
182 -43 -773 0
-182 43 0
-182 773 0
183 -182 -700 0
-183 182 0
-183 700 0
184 -774 -181 0
-184 774 0
-184 181 0
185 -750 -21 0
-185 750 0
-185 21 0
186 -185 -775 0
-186 185 0
-186 775 0
187 -776 -184 0
-187 776 0
-187 184 0
188 -775 -777 0
-188 775 0
-188 777 0
189 -188 -6 0
-189 188 0
-189 6 0
190 -778 -187 0
-190 778 0
-190 187 0
191 -714 -736 0
-191 714 0
-191 736 0
192 -191 -702 0
-192 191 0
-192 702 0
193 -779 -190 0
-193 779 0
-193 190 0
194 -727 -33 0
-194 727 0
-194 33 0
195 -194 -40 0
-195 194 0
-195 40 0
196 -780 -193 0
-196 780 0
-196 193 0
197 -28 -733 0
-197 28 0
-197 733 0
198 -197 -702 0
-198 197 0
-198 702 0
199 -781 -196 0
-199 781 0
-199 196 0
200 -782 -710 0
-200 782 0
-200 710 0
201 -200 -6 0
-201 200 0
-201 6 0
202 -783 -199 0
-202 783 0
-202 199 0
203 -40 -26 0
-203 40 0
-203 26 0
204 -203 -20 0
-204 203 0
-204 20 0
205 -784 -202 0
-205 784 0
-205 202 0
206 -785 -786 0
-206 785 0
-206 786 0
207 -206 -3 0
-207 206 0
-207 3 0
208 -787 -205 0
-208 787 0
-208 205 0
209 -777 -12 0
-209 777 0
-209 12 0
210 -209 -788 0
-210 209 0
-210 788 0
211 -789 -208 0
-211 789 0
-211 208 0
212 -37 -790 0
-212 37 0
-212 790 0
213 -212 -10 0
-213 212 0
-213 10 0
214 -791 -211 0
-214 791 0
-214 211 0
215 -21 -733 0
-215 21 0
-215 733 0
216 -215 -24 0
-216 215 0
-216 24 0
217 -792 -214 0
-217 792 0
-217 214 0
218 -45 -34 0
-218 45 0
-218 34 0
219 -218 -766 0
-219 218 0
-219 766 0
220 -793 -217 0
-220 793 0
-220 217 0
221 -40 -733 0
-221 40 0
-221 733 0
222 -221 -9 0
-222 221 0
-222 9 0
223 -794 -220 0
-223 794 0
-223 220 0
224 -128 -795 0
-224 128 0
-224 795 0
225 -796 -223 0
-225 796 0
-225 223 0
226 -33 -31 0
-226 33 0
-226 31 0
227 -226 -13 0
-227 226 0
-227 13 0
228 -797 -225 0
-228 797 0
-228 225 0
229 -41 -727 0
-229 41 0
-229 727 0
230 -229 -788 0
-230 229 0
-230 788 0
231 -798 -228 0
-231 798 0
-231 228 0
232 -786 -736 0
-232 786 0
-232 736 0
233 -232 -722 0
-233 232 0
-233 722 0
234 -799 -231 0
-234 799 0
-234 231 0
235 -759 -14 0
-235 759 0
-235 14 0
236 -235 -3 0
-236 235 0
-236 3 0
237 -800 -234 0
-237 800 0
-237 234 0
238 -16 -694 0
-238 16 0
-238 694 0
239 -238 -693 0
-239 238 0
-239 693 0
240 -801 -237 0
-240 801 0
-240 237 0
241 -50 -692 0
-241 50 0
-241 692 0
242 -241 -13 0
-242 241 0
-242 13 0
243 -802 -240 0
-243 802 0
-243 240 0
244 -759 -803 0
-244 759 0
-244 803 0
245 -244 -706 0
-245 244 0
-245 706 0
246 -804 -243 0
-246 804 0
-246 243 0
247 -736 -692 0
-247 736 0
-247 692 0
248 -247 -747 0
-248 247 0
-248 747 0
249 -805 -246 0
-249 805 0
-249 246 0
250 -742 -806 0
-250 742 0
-250 806 0
251 -250 -699 0
-251 250 0
-251 699 0
252 -807 -249 0
-252 807 0
-252 249 0
253 -806 -790 0
-253 806 0
-253 790 0
254 -253 -693 0
-254 253 0
-254 693 0
255 -808 -252 0
-255 808 0
-255 252 0
256 -757 -747 0
-256 757 0
-256 747 0
257 -256 -22 0
-257 256 0
-257 22 0
258 -809 -255 0
-258 809 0
-258 255 0
259 -740 -5 0
-259 740 0
-259 5 0
260 -259 -759 0
-260 259 0
-260 759 0
261 -810 -258 0
-261 810 0
-261 258 0
262 -45 -26 0
-262 45 0
-262 26 0
263 -262 -39 0
-263 262 0
-263 39 0
264 -811 -261 0
-264 811 0
-264 261 0
265 -769 -15 0
-265 769 0
-265 15 0
266 -265 -771 0
-266 265 0
-266 771 0
267 -812 -264 0
-267 812 0
-267 264 0
268 -95 -26 0
-268 95 0
-268 26 0
269 -813 -267 0
-269 813 0
-269 267 0
270 -39 -3 0
-270 39 0
-270 3 0
271 -270 -32 0
-271 270 0
-271 32 0
272 -814 -269 0
-272 814 0
-272 269 0
273 -717 -692 0
-273 717 0
-273 692 0
274 -273 -46 0
-274 273 0
-274 46 0
275 -815 -272 0
-275 815 0
-275 272 0
276 -29 -733 0
-276 29 0
-276 733 0
277 -276 -8 0
-277 276 0
-277 8 0
278 -816 -275 0
-278 816 0
-278 275 0
279 -44 -692 0
-279 44 0
-279 692 0
280 -279 -722 0
-280 279 0
-280 722 0
281 -817 -278 0
-281 817 0
-281 278 0
282 -40 -29 0
-282 40 0
-282 29 0
283 -282 -782 0
-283 282 0
-283 782 0
284 -818 -281 0
-284 818 0
-284 281 0
285 -715 -10 0
-285 715 0
-285 10 0
286 -285 -722 0
-286 285 0
-286 722 0
287 -819 -284 0
-287 819 0
-287 284 0
288 -710 -736 0
-288 710 0
-288 736 0
289 -288 -10 0
-289 288 0
-289 10 0
290 -820 -287 0
-290 820 0
-290 287 0
291 -17 -5 0
-291 17 0
-291 5 0
292 -291 -693 0
-292 291 0
-292 693 0
293 -821 -290 0
-293 821 0
-293 290 0
294 -46 -738 0
-294 46 0
-294 738 0
295 -294 -10 0
-295 294 0
-295 10 0
296 -822 -293 0
-296 822 0
-296 293 0
297 -49 -724 0
-297 49 0
-297 724 0
298 -297 -693 0
-298 297 0
-298 693 0
299 -823 -296 0
-299 823 0
-299 296 0
300 -752 -16 0
-300 752 0
-300 16 0
301 -300 -769 0
-301 300 0
-301 769 0
302 -824 -299 0
-302 824 0
-302 299 0
303 -31 -12 0
-303 31 0
-303 12 0
304 -303 -9 0
-304 303 0
-304 9 0
305 -825 -302 0
-305 825 0
-305 302 0
306 -34 -1 0
-306 34 0
-306 1 0
307 -306 -39 0
-307 306 0
-307 39 0
308 -826 -305 0
-308 826 0
-308 305 0
309 -782 -705 0
-309 782 0
-309 705 0
310 -309 -759 0
-310 309 0
-310 759 0
311 -827 -308 0
-311 827 0
-311 308 0
312 -45 -803 0
-312 45 0
-312 803 0
313 -312 -46 0
-313 312 0
-313 46 0
314 -828 -311 0
-314 828 0
-314 311 0
315 -766 -694 0
-315 766 0
-315 694 0
316 -315 -27 0
-316 315 0
-316 27 0
317 -829 -314 0
-317 829 0
-317 314 0
318 -38 -28 0
-318 38 0
-318 28 0
319 -318 -32 0
-319 318 0
-319 32 0
320 -830 -317 0
-320 830 0
-320 317 0
321 -11 -5 0
-321 11 0
-321 5 0
322 -321 -20 0
-322 321 0
-322 20 0
323 -831 -320 0
-323 831 0
-323 320 0
324 -26 -695 0
-324 26 0
-324 695 0
325 -324 -11 0
-325 324 0
-325 11 0
326 -832 -323 0
-326 832 0
-326 323 0
327 -38 -740 0
-327 38 0
-327 740 0
328 -327 -728 0
-328 327 0
-328 728 0
329 -833 -326 0
-329 833 0
-329 326 0
330 -722 -13 0
-330 722 0
-330 13 0
331 -330 -728 0
-331 330 0
-331 728 0
332 -834 -329 0
-332 834 0
-332 329 0
333 -742 -28 0
-333 742 0
-333 28 0
334 -333 -11 0
-334 333 0
-334 11 0
335 -835 -332 0
-335 835 0
-335 332 0
336 -37 -710 0
-336 37 0
-336 710 0
337 -336 -32 0
-337 336 0
-337 32 0
338 -836 -335 0
-338 836 0
-338 335 0
339 -18 -1 0
-339 18 0
-339 1 0
340 -339 -777 0
-340 339 0
-340 777 0
341 -837 -338 0
-341 837 0
-341 338 0
342 -838 -773 0
-342 838 0
-342 773 0
343 -342 -33 0
-343 342 0
-343 33 0
344 -839 -341 0
-344 839 0
-344 341 0
345 -14 -10 0
-345 14 0
-345 10 0
346 -345 -48 0
-346 345 0
-346 48 0
347 -840 -344 0
-347 840 0
-347 344 0
348 -44 -803 0
-348 44 0
-348 803 0
349 -348 -20 0
-349 348 0
-349 20 0
350 -841 -347 0
-350 841 0
-350 347 0
351 -21 -694 0
-351 21 0
-351 694 0
352 -351 -715 0
-352 351 0
-352 715 0
353 -842 -350 0
-353 842 0
-353 350 0
354 -775 -29 0
-354 775 0
-354 29 0
355 -354 -706 0
-355 354 0
-355 706 0
356 -843 -353 0
-356 843 0
-356 353 0
357 -757 -23 0
-357 757 0
-357 23 0
358 -357 -722 0
-358 357 0
-358 722 0
359 -844 -356 0
-359 844 0
-359 356 0
360 -718 -736 0
-360 718 0
-360 736 0
361 -360 -48 0
-361 360 0
-361 48 0
362 -845 -359 0
-362 845 0
-362 359 0
363 -50 -44 0
-363 50 0
-363 44 0
364 -363 -20 0
-364 363 0
-364 20 0
365 -846 -362 0
-365 846 0
-365 362 0
366 -806 -702 0
-366 806 0
-366 702 0
367 -366 -9 0
-367 366 0
-367 9 0
368 -847 -365 0
-368 847 0
-368 365 0
369 -34 -12 0
-369 34 0
-369 12 0
370 -369 -6 0
-370 369 0
-370 6 0
371 -848 -368 0
-371 848 0
-371 368 0
372 -49 -21 0
-372 49 0
-372 21 0
373 -372 -769 0
-373 372 0
-373 769 0
374 -849 -371 0
-374 849 0
-374 371 0
375 -768 -37 0
-375 768 0
-375 37 0
376 -375 -757 0
-376 375 0
-376 757 0
377 -850 -374 0
-377 850 0
-377 374 0
378 -38 -34 0
-378 38 0
-378 34 0
379 -378 -742 0
-379 378 0
-379 742 0
380 -851 -377 0
-380 851 0
-380 377 0
381 -23 -705 0
-381 23 0
-381 705 0
382 -381 -5 0
-382 381 0
-382 5 0
383 -852 -380 0
-383 852 0
-383 380 0
384 -742 -9 0
-384 742 0
-384 9 0
385 -384 -48 0
-385 384 0
-385 48 0
386 -853 -383 0
-386 853 0
-386 383 0
387 -40 -1 0
-387 40 0
-387 1 0
388 -387 -13 0
-388 387 0
-388 13 0
389 -854 -386 0
-389 854 0
-389 386 0
390 -766 -26 0
-390 766 0
-390 26 0
391 -390 -9 0
-391 390 0
-391 9 0
392 -855 -389 0
-392 855 0
-392 389 0
393 -742 -37 0
-393 742 0
-393 37 0
394 -393 -24 0
-394 393 0
-394 24 0
395 -856 -392 0
-395 856 0
-395 392 0
396 -41 -23 0
-396 41 0
-396 23 0
397 -396 -47 0
-397 396 0
-397 47 0
398 -857 -395 0
-398 857 0
-398 395 0
399 -750 -692 0
-399 750 0
-399 692 0
400 -399 -706 0
-400 399 0
-400 706 0
401 -858 -398 0
-401 858 0
-401 398 0
402 -766 -1 0
-402 766 0
-402 1 0
403 -402 -3 0
-403 402 0
-403 3 0
404 -859 -401 0
-404 859 0
-404 401 0
405 -33 -2 0
-405 33 0
-405 2 0
406 -405 -27 0
-406 405 0
-406 27 0
407 -860 -404 0
-407 860 0
-407 404 0
408 -226 -775 0
-408 226 0
-408 775 0
409 -861 -407 0
-409 861 0
-409 407 0
410 -717 -702 0
-410 717 0
-410 702 0
411 -410 -3 0
-411 410 0
-411 3 0
412 -862 -409 0
-412 862 0
-412 409 0
413 -40 -12 0
-413 40 0
-413 12 0
414 -413 -24 0
-414 413 0
-414 24 0
415 -863 -412 0
-415 863 0
-415 412 0
416 -717 -694 0
-416 717 0
-416 694 0
417 -416 -44 0
-417 416 0
-417 44 0
418 -864 -415 0
-418 864 0
-418 415 0
419 -16 -12 0
-419 16 0
-419 12 0
420 -419 -759 0
-420 419 0
-420 759 0
421 -865 -418 0
-421 865 0
-421 418 0
422 -46 -724 0
-422 46 0
-422 724 0
423 -422 -11 0
-423 422 0
-423 11 0
424 -866 -421 0
-424 866 0
-424 421 0
425 -42 -727 0
-425 42 0
-425 727 0
426 -425 -693 0
-426 425 0
-426 693 0
427 -867 -424 0
-427 867 0
-427 424 0
428 -47 -740 0
-428 47 0
-428 740 0
429 -428 -20 0
-429 428 0
-429 20 0
430 -868 -427 0
-430 868 0
-430 427 0
431 -786 -722 0
-431 786 0
-431 722 0
432 -431 -20 0
-432 431 0
-432 20 0
433 -869 -430 0
-433 869 0
-433 430 0
434 -752 -41 0
-434 752 0
-434 41 0
435 -434 -11 0
-435 434 0
-435 11 0
436 -870 -433 0
-436 870 0
-436 433 0
437 -777 -705 0
-437 777 0
-437 705 0
438 -437 -24 0
-438 437 0
-438 24 0
439 -871 -436 0
-439 871 0
-439 436 0
440 -752 -790 0
-440 752 0
-440 790 0
441 -440 -759 0
-441 440 0
-441 759 0
442 -872 -439 0
-442 872 0
-442 439 0
443 -34 -33 0
-443 34 0
-443 33 0
444 -443 -730 0
-444 443 0
-444 730 0
445 -873 -442 0
-445 873 0
-445 442 0
446 -768 -773 0
-446 768 0
-446 773 0
447 -446 -5 0
-447 446 0
-447 5 0
448 -874 -445 0
-448 874 0
-448 445 0
449 -752 -39 0
-449 752 0
-449 39 0
450 -449 -9 0
-450 449 0
-450 9 0
451 -875 -448 0
-451 875 0
-451 448 0
452 -26 -782 0
-452 26 0
-452 782 0
453 -452 -46 0
-453 452 0
-453 46 0
454 -876 -451 0
-454 876 0
-454 451 0
455 -785 -38 0
-455 785 0
-455 38 0
456 -455 -15 0
-456 455 0
-456 15 0
457 -877 -454 0
-457 877 0
-457 454 0
458 -30 -790 0
-458 30 0
-458 790 0
459 -458 -46 0
-459 458 0
-459 46 0
460 -878 -457 0
-460 878 0
-460 457 0
461 -26 -14 0
-461 26 0
-461 14 0
462 -461 -785 0
-462 461 0
-462 785 0
463 -879 -460 0
-463 879 0
-463 460 0
464 -700 -8 0
-464 700 0
-464 8 0
465 -464 -11 0
-465 464 0
-465 11 0
466 -880 -463 0
-466 880 0
-466 463 0
467 -25 -12 0
-467 25 0
-467 12 0
468 -467 -27 0
-468 467 0
-468 27 0
469 -881 -466 0
-469 881 0
-469 466 0
470 -757 -705 0
-470 757 0
-470 705 0
471 -470 -882 0
-471 470 0
-471 882 0
472 -883 -469 0
-472 883 0
-472 469 0
473 -738 -692 0
-473 738 0
-473 692 0
474 -473 -19 0
-474 473 0
-474 19 0
475 -884 -472 0
-475 884 0
-475 472 0
476 -137 -21 0
-476 137 0
-476 21 0
477 -885 -475 0
-477 885 0
-477 475 0
478 -775 -28 0
-478 775 0
-478 28 0
479 -478 -740 0
-479 478 0
-479 740 0
480 -886 -477 0
-480 886 0
-480 477 0
481 -33 -694 0
-481 33 0
-481 694 0
482 -481 -699 0
-482 481 0
-482 699 0
483 -887 -480 0
-483 887 0
-483 480 0
484 -36 -23 0
-484 36 0
-484 23 0
485 -484 -8 0
-485 484 0
-485 8 0
486 -888 -483 0
-486 888 0
-486 483 0
487 -717 -740 0
-487 717 0
-487 740 0
488 -487 -708 0
-488 487 0
-488 708 0
489 -889 -486 0
-489 889 0
-489 486 0
490 -30 -715 0
-490 30 0
-490 715 0
491 -490 -10 0
-491 490 0
-491 10 0
492 -890 -489 0
-492 890 0
-492 489 0
493 -167 -759 0
-493 167 0
-493 759 0
494 -891 -492 0
-494 891 0
-494 492 0
495 -718 -803 0
-495 718 0
-495 803 0
496 -495 -757 0
-496 495 0
-496 757 0
497 -892 -494 0
-497 892 0
-497 494 0
498 -45 -714 0
-498 45 0
-498 714 0
499 -498 -738 0
-499 498 0
-499 738 0
500 -893 -497 0
-500 893 0
-500 497 0
501 -717 -730 0
-501 717 0
-501 730 0
502 -501 -706 0
-502 501 0
-502 706 0
503 -894 -500 0
-503 894 0
-503 500 0
504 -710 -692 0
-504 710 0
-504 692 0
505 -504 -708 0
-505 504 0
-505 708 0
506 -895 -503 0
-506 895 0
-506 503 0
507 -759 -12 0
-507 759 0
-507 12 0
508 -507 -882 0
-508 507 0
-508 882 0
509 -896 -506 0
-509 896 0
-509 506 0
510 -721 -5 0
-510 721 0
-510 5 0
511 -510 -10 0
-511 510 0
-511 10 0
512 -897 -509 0
-512 897 0
-512 509 0
513 -47 -736 0
-513 47 0
-513 736 0
514 -513 -730 0
-514 513 0
-514 730 0
515 -898 -512 0
-515 898 0
-515 512 0
516 -747 -750 0
-516 747 0
-516 750 0
517 -516 -771 0
-517 516 0
-517 771 0
518 -899 -515 0
-518 899 0
-518 515 0
519 -740 -788 0
-519 740 0
-519 788 0
520 -519 -795 0
-520 519 0
-520 795 0
521 -900 -518 0
-521 900 0
-521 518 0
522 -40 -10 0
-522 40 0
-522 10 0
523 -522 -44 0
-523 522 0
-523 44 0
524 -901 -521 0
-524 901 0
-524 521 0
525 -33 -12 0
-525 33 0
-525 12 0
526 -525 -699 0
-526 525 0
-526 699 0
527 -902 -524 0
-527 902 0
-527 524 0
528 -39 -14 0
-528 39 0
-528 14 0
529 -528 -700 0
-529 528 0
-529 700 0
530 -903 -527 0
-530 903 0
-530 527 0
531 -768 -2 0
-531 768 0
-531 2 0
532 -531 -795 0
-532 531 0
-532 795 0
533 -904 -530 0
-533 904 0
-533 530 0
534 -727 -721 0
-534 727 0
-534 721 0
535 -534 -18 0
-535 534 0
-535 18 0
536 -905 -533 0
-536 905 0
-536 533 0
537 -28 -16 0
-537 28 0
-537 16 0
538 -537 -692 0
-538 537 0
-538 692 0
539 -906 -536 0
-539 906 0
-539 536 0
540 -768 -3 0
-540 768 0
-540 3 0
541 -540 -32 0
-541 540 0
-541 32 0
542 -907 -539 0
-542 907 0
-542 539 0
543 -722 -1 0
-543 722 0
-543 1 0
544 -543 -48 0
-544 543 0
-544 48 0
545 -908 -542 0
-545 908 0
-545 542 0
546 -50 -718 0
-546 50 0
-546 718 0
547 -546 -37 0
-547 546 0
-547 37 0
548 -909 -545 0
-548 909 0
-548 545 0
549 -36 -5 0
-549 36 0
-549 5 0
550 -549 -769 0
-550 549 0
-550 769 0
551 -910 -548 0
-551 910 0
-551 548 0
552 -8 -3 0
-552 8 0
-552 3 0
553 -552 -19 0
-553 552 0
-553 19 0
554 -911 -551 0
-554 911 0
-554 551 0
555 -750 -736 0
-555 750 0
-555 736 0
556 -555 -738 0
-556 555 0
-556 738 0
557 -912 -554 0
-557 912 0
-557 554 0
558 -232 -2 0
-558 232 0
-558 2 0
559 -913 -557 0
-559 913 0
-559 557 0
560 -44 -742 0
-560 44 0
-560 742 0
561 -560 -48 0
-561 560 0
-561 48 0
562 -914 -559 0
-562 914 0
-562 559 0
563 -46 -13 0
-563 46 0
-563 13 0
564 -563 -700 0
-564 563 0
-564 700 0
565 -915 -562 0
-565 915 0
-565 562 0
566 -724 -4 0
-566 724 0
-566 4 0
567 -566 -777 0
-567 566 0
-567 777 0
568 -916 -565 0
-568 916 0
-568 565 0
569 -721 -803 0
-569 721 0
-569 803 0
570 -569 -759 0
-570 569 0
-570 759 0
571 -917 -568 0
-571 917 0
-571 568 0
572 -768 -39 0
-572 768 0
-572 39 0
573 -572 -47 0
-573 572 0
-573 47 0
574 -918 -571 0
-574 918 0
-574 571 0
575 -727 -17 0
-575 727 0
-575 17 0
576 -575 -32 0
-576 575 0
-576 32 0
577 -919 -574 0
-577 919 0
-577 574 0
578 -28 -703 0
-578 28 0
-578 703 0
579 -578 -715 0
-579 578 0
-579 715 0
580 -920 -577 0
-580 920 0
-580 577 0
581 -51 -730 0
-581 51 0
-581 730 0
582 -921 -580 0
-582 921 0
-582 580 0
583 -41 -803 0
-583 41 0
-583 803 0
584 -583 -8 0
-584 583 0
-584 8 0
585 -922 -582 0
-585 922 0
-585 582 0
586 -724 -18 0
-586 724 0
-586 18 0
587 -586 -23 0
-587 586 0
-587 23 0
588 -923 -585 0
-588 923 0
-588 585 0
589 -28 -13 0
-589 28 0
-589 13 0
590 -589 -22 0
-590 589 0
-590 22 0
591 -924 -588 0
-591 924 0
-591 588 0
592 -33 -777 0
-592 33 0
-592 777 0
593 -592 -19 0
-593 592 0
-593 19 0
594 -925 -591 0
-594 925 0
-594 591 0
595 -727 -717 0
-595 727 0
-595 717 0
596 -595 -715 0
-596 595 0
-596 715 0
597 -926 -594 0
-597 926 0
-597 594 0
598 -18 -12 0
-598 18 0
-598 12 0
599 -598 -775 0
-599 598 0
-599 775 0
600 -927 -597 0
-600 927 0
-600 597 0
601 -718 -795 0
-601 718 0
-601 795 0
602 -601 -48 0
-602 601 0
-602 48 0
603 -928 -600 0
-603 928 0
-603 600 0
604 -37 -30 0
-604 37 0
-604 30 0
605 -604 -700 0
-605 604 0
-605 700 0
606 -929 -603 0
-606 929 0
-606 603 0
607 -750 -30 0
-607 750 0
-607 30 0
608 -607 -882 0
-608 607 0
-608 882 0
609 -930 -606 0
-609 930 0
-609 606 0
610 -727 -30 0
-610 727 0
-610 30 0
611 -610 -710 0
-611 610 0
-611 710 0
612 -931 -609 0
-612 931 0
-612 609 0
613 -167 -720 0
-613 167 0
-613 720 0
614 -932 -612 0
-614 932 0
-614 612 0
615 -38 -30 0
-615 38 0
-615 30 0
616 -615 -8 0
-616 615 0
-616 8 0
617 -933 -614 0
-617 933 0
-617 614 0
618 -38 -27 0
-618 38 0
-618 27 0
619 -618 -48 0
-619 618 0
-619 48 0
620 -934 -617 0
-620 934 0
-620 617 0
621 -695 -2 0
-621 695 0
-621 2 0
622 -621 -19 0
-622 621 0
-622 19 0
623 -935 -620 0
-623 935 0
-623 620 0
624 -773 -736 0
-624 773 0
-624 736 0
625 -624 -747 0
-625 624 0
-625 747 0
626 -936 -623 0
-626 936 0
-626 623 0
627 -47 -710 0
-627 47 0
-627 710 0
628 -627 -44 0
-628 627 0
-628 44 0
629 -937 -626 0
-629 937 0
-629 626 0
630 -788 -16 0
-630 788 0
-630 16 0
631 -630 -795 0
-631 630 0
-631 795 0
632 -938 -629 0
-632 938 0
-632 629 0
633 -41 -720 0
-633 41 0
-633 720 0
634 -633 -27 0
-634 633 0
-634 27 0
635 -939 -632 0
-635 939 0
-635 632 0
636 -775 -782 0
-636 775 0
-636 782 0
637 -636 -706 0
-637 636 0
-637 706 0
638 -940 -635 0
-638 940 0
-638 635 0
639 -42 -724 0
-639 42 0
-639 724 0
640 -639 -8 0
-640 639 0
-640 8 0
641 -941 -638 0
-641 941 0
-641 638 0
642 -46 -26 0
-642 46 0
-642 26 0
643 -642 -730 0
-643 642 0
-643 730 0
644 -942 -641 0
-644 942 0
-644 641 0
645 -14 -2 0
-645 14 0
-645 2 0
646 -645 -703 0
-646 645 0
-646 703 0
647 -943 -644 0
-647 943 0
-647 644 0
648 -45 -18 0
-648 45 0
-648 18 0
649 -648 -15 0
-649 648 0
-649 15 0
650 -944 -647 0
-650 944 0
-650 647 0
651 -838 -18 0
-651 838 0
-651 18 0
652 -651 -10 0
-652 651 0
-652 10 0
653 -945 -650 0
-653 945 0
-653 650 0
654 -882 -1 0
-654 882 0
-654 1 0
655 -654 -35 0
-655 654 0
-655 35 0
656 -946 -653 0
-656 946 0
-656 653 0
657 -36 -34 0
-657 36 0
-657 34 0
658 -657 -25 0
-658 657 0
-658 25 0
659 -947 -656 0
-659 947 0
-659 656 0
660 -50 -4 0
-660 50 0
-660 4 0
661 -660 -15 0
-661 660 0
-661 15 0
662 -948 -659 0
-662 948 0
-662 659 0
663 -699 -692 0
-663 699 0
-663 692 0
664 -663 -35 0
-664 663 0
-664 35 0
665 -949 -662 0
-665 949 0
-665 662 0
666 -724 -23 0
-666 724 0
-666 23 0
667 -666 -20 0
-667 666 0
-667 20 0
668 -950 -665 0
-668 950 0
-668 665 0
669 -47 -782 0
-669 47 0
-669 782 0
670 -669 -44 0
-670 669 0
-670 44 0
671 -951 -668 0
-671 951 0
-671 668 0
672 -31 -30 0
-672 31 0
-672 30 0
673 -672 -20 0
-673 672 0
-673 20 0
674 -952 -671 0
-674 952 0
-674 671 0
675 -38 -705 0
-675 38 0
-675 705 0
676 -675 -11 0
-676 675 0
-676 11 0
677 -953 -674 0
-677 953 0
-677 674 0
678 -795 -700 0
-678 795 0
-678 700 0
679 -678 -20 0
-679 678 0
-679 20 0
680 -954 -677 0
-680 954 0
-680 677 0
681 -351 -24 0
-681 351 0
-681 24 0
682 -955 -680 0
-682 955 0
-682 680 0
683 -50 -786 0
-683 50 0
-683 786 0
684 -683 -13 0
-684 683 0
-684 13 0
685 -956 -682 0
-685 956 0
-685 682 0
686 -722 -4 0
-686 722 0
-686 4 0
687 -686 -35 0
-687 686 0
-687 35 0
688 -957 -685 0
-688 957 0
-688 685 0
689 -768 -33 0
-689 768 0
-689 33 0
690 -689 -14 0
-690 689 0
-690 14 0
691 -958 -688 0
-691 958 0
-691 688 0
-692 -2 0
692 2 0
-693 -3 0
693 3 0
-694 -5 0
694 5 0
-695 -4 0
695 4 0
-696 -54 0
696 54 0
-697 -52 0
697 52 0
-698 -57 0
698 57 0
-699 -11 0
699 11 0
-700 -10 0
700 10 0
-701 -60 0
701 60 0
-702 -8 0
702 8 0
-703 -13 0
703 13 0
-704 -63 0
704 63 0
-705 -14 0
705 14 0
-706 -15 0
706 15 0
-707 -66 0
707 66 0
-708 -6 0
708 6 0
-709 -69 0
709 69 0
-710 -18 0
710 18 0
-711 -72 0
711 72 0
-712 -75 0
712 75 0
-713 -78 0
713 78 0
-714 -25 0
714 25 0
-715 -27 0
715 27 0
-716 -81 0
716 81 0
-717 -29 0
717 29 0
-718 -28 0
718 28 0
-719 -84 0
719 84 0
-720 -31 0
720 31 0
-721 -30 0
721 30 0
-722 -32 0
722 32 0
-723 -87 0
723 87 0
-724 -33 0
724 33 0
-725 -90 0
725 90 0
-726 -93 0
726 93 0
-727 -34 0
727 34 0
-728 -35 0
728 35 0
-729 -96 0
729 96 0
-730 -24 0
730 24 0
-731 -99 0
731 99 0
-732 -102 0
732 102 0
-733 -16 0
733 16 0
-734 -105 0
734 105 0
-735 -108 0
735 108 0
-736 -7 0
736 7 0
-737 -111 0
737 111 0
-738 -37 0
738 37 0
-739 -114 0
739 114 0
-740 -22 0
740 22 0
-741 -117 0
741 117 0
-742 -41 0
742 41 0
-743 -120 0
743 120 0
-744 -123 0
744 123 0
-745 -126 0
745 126 0
-746 -129 0
746 129 0
-747 -42 0
747 42 0
-748 -132 0
748 132 0
-749 -135 0
749 135 0
-750 -40 0
750 40 0
-751 -138 0
751 138 0
-752 -43 0
752 43 0
-753 -141 0
753 141 0
-754 -144 0
754 144 0
-755 -147 0
755 147 0
-756 -150 0
756 150 0
-757 -46 0
757 46 0
-758 -153 0
758 153 0
-759 -47 0
759 47 0
-760 -156 0
760 156 0
-761 -159 0
761 159 0
-762 -162 0
762 162 0
-763 -165 0
763 165 0
-764 -168 0
764 168 0
-765 -171 0
765 171 0
-766 -39 0
766 39 0
-767 -174 0
767 174 0
-768 -45 0
768 45 0
-769 -20 0
769 20 0
-770 -177 0
770 177 0
-771 -48 0
771 48 0
-772 -180 0
772 180 0
-773 -36 0
773 36 0
-774 -183 0
774 183 0
-775 -49 0
775 49 0
-776 -186 0
776 186 0
-777 -26 0
777 26 0
-778 -189 0
778 189 0
-779 -192 0
779 192 0
-780 -195 0
780 195 0
-781 -198 0
781 198 0
-782 -21 0
782 21 0
-783 -201 0
783 201 0
-784 -204 0
784 204 0
-785 -44 0
785 44 0
-786 -38 0
786 38 0
-787 -207 0
787 207 0
-788 -17 0
788 17 0
-789 -210 0
789 210 0
-790 -1 0
790 1 0
-791 -213 0
791 213 0
-792 -216 0
792 216 0
-793 -219 0
793 219 0
-794 -222 0
794 222 0
-795 -19 0
795 19 0
-796 -224 0
796 224 0
-797 -227 0
797 227 0
-798 -230 0
798 230 0
-799 -233 0
799 233 0
-800 -236 0
800 236 0
-801 -239 0
801 239 0
-802 -242 0
802 242 0
-803 -12 0
803 12 0
-804 -245 0
804 245 0
-805 -248 0
805 248 0
-806 -23 0
806 23 0
-807 -251 0
807 251 0
-808 -254 0
808 254 0
-809 -257 0
809 257 0
-810 -260 0
810 260 0
-811 -263 0
811 263 0
-812 -266 0
812 266 0
-813 -268 0
813 268 0
-814 -271 0
814 271 0
-815 -274 0
815 274 0
-816 -277 0
816 277 0
-817 -280 0
817 280 0
-818 -283 0
818 283 0
-819 -286 0
819 286 0
-820 -289 0
820 289 0
-821 -292 0
821 292 0
-822 -295 0
822 295 0
-823 -298 0
823 298 0
-824 -301 0
824 301 0
-825 -304 0
825 304 0
-826 -307 0
826 307 0
-827 -310 0
827 310 0
-828 -313 0
828 313 0
-829 -316 0
829 316 0
-830 -319 0
830 319 0
-831 -322 0
831 322 0
-832 -325 0
832 325 0
-833 -328 0
833 328 0
-834 -331 0
834 331 0
-835 -334 0
835 334 0
-836 -337 0
836 337 0
-837 -340 0
837 340 0
-838 -50 0
838 50 0
-839 -343 0
839 343 0
-840 -346 0
840 346 0
-841 -349 0
841 349 0
-842 -352 0
842 352 0
-843 -355 0
843 355 0
-844 -358 0
844 358 0
-845 -361 0
845 361 0
-846 -364 0
846 364 0
-847 -367 0
847 367 0
-848 -370 0
848 370 0
-849 -373 0
849 373 0
-850 -376 0
850 376 0
-851 -379 0
851 379 0
-852 -382 0
852 382 0
-853 -385 0
853 385 0
-854 -388 0
854 388 0
-855 -391 0
855 391 0
-856 -394 0
856 394 0
-857 -397 0
857 397 0
-858 -400 0
858 400 0
-859 -403 0
859 403 0
-860 -406 0
860 406 0
-861 -408 0
861 408 0
-862 -411 0
862 411 0
-863 -414 0
863 414 0
-864 -417 0
864 417 0
-865 -420 0
865 420 0
-866 -423 0
866 423 0
-867 -426 0
867 426 0
-868 -429 0
868 429 0
-869 -432 0
869 432 0
-870 -435 0
870 435 0
-871 -438 0
871 438 0
-872 -441 0
872 441 0
-873 -444 0
873 444 0
-874 -447 0
874 447 0
-875 -450 0
875 450 0
-876 -453 0
876 453 0
-877 -456 0
877 456 0
-878 -459 0
878 459 0
-879 -462 0
879 462 0
-880 -465 0
880 465 0
-881 -468 0
881 468 0
-882 -9 0
882 9 0
-883 -471 0
883 471 0
-884 -474 0
884 474 0
-885 -476 0
885 476 0
-886 -479 0
886 479 0
-887 -482 0
887 482 0
-888 -485 0
888 485 0
-889 -488 0
889 488 0
-890 -491 0
890 491 0
-891 -493 0
891 493 0
-892 -496 0
892 496 0
-893 -499 0
893 499 0
-894 -502 0
894 502 0
-895 -505 0
895 505 0
-896 -508 0
896 508 0
-897 -511 0
897 511 0
-898 -514 0
898 514 0
-899 -517 0
899 517 0
-900 -520 0
900 520 0
-901 -523 0
901 523 0
-902 -526 0
902 526 0
-903 -529 0
903 529 0
-904 -532 0
904 532 0
-905 -535 0
905 535 0
-906 -538 0
906 538 0
-907 -541 0
907 541 0
-908 -544 0
908 544 0
-909 -547 0
909 547 0
-910 -550 0
910 550 0
-911 -553 0
911 553 0
-912 -556 0
912 556 0
-913 -558 0
913 558 0
-914 -561 0
914 561 0
-915 -564 0
915 564 0
-916 -567 0
916 567 0
-917 -570 0
917 570 0
-918 -573 0
918 573 0
-919 -576 0
919 576 0
-920 -579 0
920 579 0
-921 -581 0
921 581 0
-922 -584 0
922 584 0
-923 -587 0
923 587 0
-924 -590 0
924 590 0
-925 -593 0
925 593 0
-926 -596 0
926 596 0
-927 -599 0
927 599 0
-928 -602 0
928 602 0
-929 -605 0
929 605 0
-930 -608 0
930 608 0
-931 -611 0
931 611 0
-932 -613 0
932 613 0
-933 -616 0
933 616 0
-934 -619 0
934 619 0
-935 -622 0
935 622 0
-936 -625 0
936 625 0
-937 -628 0
937 628 0
-938 -631 0
938 631 0
-939 -634 0
939 634 0
-940 -637 0
940 637 0
-941 -640 0
941 640 0
-942 -643 0
942 643 0
-943 -646 0
943 646 0
-944 -649 0
944 649 0
-945 -652 0
945 652 0
-946 -655 0
946 655 0
-947 -658 0
947 658 0
-948 -661 0
948 661 0
-949 -664 0
949 664 0
-950 -667 0
950 667 0
-951 -670 0
951 670 0
-952 -673 0
952 673 0
-953 -676 0
953 676 0
-954 -679 0
954 679 0
-955 -681 0
955 681 0
-956 -684 0
956 684 0
-957 -687 0
957 687 0
-958 -690 0
958 690 0
691 0
